NAME /Users/henri/Research/solvers/instances/idol-instances/robust/collection/cbp_Subramanyam_et_al_2020/CapBud_N10_13/models/uncertain_technology_matrix/
ROWS
 N  OBJ
 L  capacity
 L  c_880
 L  c_881
 L  c_882
 L  c_883
 L  c_884
 L  c_885
 L  c_886
 L  c_887
 L  c_888
 L  c_889
COLUMNS
    MARKER    'MARKER'                 'INTORG'
    x_0        OBJ        7.71321
    x_0        c_880      1
    x_0        capacity   1.54264
    x_1        OBJ        7.62297
    x_1        c_881      1
    x_1        capacity   1.52459
    x_2        OBJ        0.815412
    x_2        c_882      1
    x_2        capacity   0.163082
    x_3        OBJ        8.31036
    x_3        c_883      1
    x_3        capacity   1.66207
    x_4        OBJ        1.72042
    x_4        c_884      1
    x_4        capacity   0.344084
    x_5        OBJ        1.36432
    x_5        c_885      1
    x_5        capacity   0.272865
    x_6        OBJ        1.66401
    x_6        c_886      1
    x_6        capacity   0.332802
    x_7        OBJ        0.0275801
    x_7        c_887      1
    x_7        capacity   0.00551601
    x_8        OBJ        5.33457
    x_8        c_888      1
    x_8        capacity   1.06691
    x_9        OBJ        3.68976
    x_9        c_889      1
    x_9        capacity   0.737952
    y_0        OBJ        6.17057
    y_0        c_880      1
    y_0        capacity   1.54264
    y_1        OBJ        6.09838
    y_1        c_881      1
    y_1        capacity   1.52459
    y_2        OBJ        0.65233
    y_2        c_882      1
    y_2        capacity   0.163082
    y_3        OBJ        6.64829
    y_3        c_883      1
    y_3        capacity   1.66207
    y_4        OBJ        1.37634
    y_4        c_884      1
    y_4        capacity   0.344084
    y_5        OBJ        1.09146
    y_5        c_885      1
    y_5        capacity   0.272865
    y_6        OBJ        1.33121
    y_6        c_886      1
    y_6        capacity   0.332802
    y_7        OBJ        0.022064
    y_7        c_887      1
    y_7        capacity   0.00551601
    y_8        OBJ        4.26765
    y_8        c_888      1
    y_8        capacity   1.06691
    y_9        OBJ        2.95181
    y_9        c_889      1
    y_9        capacity   0.737952
    MARKER    'MARKER'                 'INTEND'
RHS
    RHS       capacity   19.1313
    RHS       c_880      1
    RHS       c_881      1
    RHS       c_882      1
    RHS       c_883      1
    RHS       c_884      1
    RHS       c_885      1
    RHS       c_886      1
    RHS       c_887      1
    RHS       c_888      1
    RHS       c_889      1
BOUNDS
 LI BND       x_0        0
 UI BND       x_0        1
 LI BND       x_1        0
 UI BND       x_1        1
 LI BND       x_2        0
 UI BND       x_2        1
 LI BND       x_3        0
 UI BND       x_3        1
 LI BND       x_4        0
 UI BND       x_4        1
 LI BND       x_5        0
 UI BND       x_5        1
 LI BND       x_6        0
 UI BND       x_6        1
 LI BND       x_7        0
 UI BND       x_7        1
 LI BND       x_8        0
 UI BND       x_8        1
 LI BND       x_9        0
 UI BND       x_9        1
 LI BND       y_0        0
 UI BND       y_0        1
 LI BND       y_1        0
 UI BND       y_1        1
 LI BND       y_2        0
 UI BND       y_2        1
 LI BND       y_3        0
 UI BND       y_3        1
 LI BND       y_4        0
 UI BND       y_4        1
 LI BND       y_5        0
 UI BND       y_5        1
 LI BND       y_6        0
 UI BND       y_6        1
 LI BND       y_7        0
 UI BND       y_7        1
 LI BND       y_8        0
 UI BND       y_8        1
 LI BND       y_9        0
 UI BND       y_9        1
ENDATA
